(set-logic QF_LIA)
(declare-fun x0 () Int)
(declare-fun x1 () Int)
(declare-fun x2 () Int)
(declare-fun x3 () Int)
(declare-fun x4 () Int)
(declare-fun x5 () Int)
(declare-fun x6 () Int)
(declare-fun x7 () Int)
(declare-fun x8 () Int)
(declare-fun x9 () Int)
(declare-fun A0 () Bool)
(declare-fun A1 () Bool)
(declare-fun A2 () Bool)
(declare-fun A3 () Bool)
(declare-fun A4 () Bool)
(declare-fun A5 () Bool)
(declare-fun A6 () Bool)
(declare-fun A7 () Bool)
(declare-fun A8 () Bool)
(declare-fun A9 () Bool)
(assert (let ((.def_0 (or A7 A5))) (let ((.def_1 (not .def_0))) (let ((.def_2 (* 1 x5))) (let ((.def_3 (< .def_2 1))) (let ((.def_4 (not .def_3))) (let ((.def_5 (* 1 x7))) (let ((.def_6 (* 1 x2))) (let ((.def_7 (+ .def_6 .def_5))) (let ((.def_8 (< .def_7 1))) (let ((.def_9 (not .def_8))) (let ((.def_10 (and .def_9 .def_4))) (let ((.def_11 (not .def_10))) (let ((.def_12 (and .def_11 .def_1))) (let ((.def_13 (* (- 1) x2))) (let ((.def_14 (< .def_13 1))) (let ((.def_15 (* 1 x3))) (let ((.def_16 (* (- 1) x1))) (let ((.def_17 (+ .def_16 .def_15))) (let ((.def_18 (< .def_17 1))) (let ((.def_19 (not .def_18))) (let ((.def_20 (and .def_19 .def_14))) (let ((.def_21 (* 1 x9))) (let ((.def_22 (* (- 1) x8))) (let ((.def_23 (+ .def_22 .def_21))) (let ((.def_24 (< .def_23 (- 1)))) (let ((.def_25 (* (- 1) x3))) (let ((.def_26 (+ .def_16 .def_25))) (let ((.def_27 (< .def_26 1))) (let ((.def_28 (and .def_27 .def_24))) (let ((.def_29 (or .def_28 .def_20))) (let ((.def_30 (and .def_29 .def_12))) (let ((.def_31 (or A4 A9))) (let ((.def_32 (* (- 1) x0))) (let ((.def_33 (+ .def_32 .def_5))) (let ((.def_34 (< .def_33 (- 1)))) (let ((.def_35 (not .def_34))) (let ((.def_36 (not A1))) (let ((.def_37 (and .def_36 .def_35))) (let ((.def_38 (= .def_37 .def_31))) (let ((.def_39 (not A6))) (let ((.def_40 (= A9 .def_39))) (let ((.def_41 (not .def_40))) (let ((.def_42 (* (- 1) x7))) (let ((.def_43 (* 1 x4))) (let ((.def_44 (+ .def_43 .def_42))) (let ((.def_45 (< .def_44 (- 1)))) (let ((.def_46 (not .def_45))) (let ((.def_47 (and .def_46 A5))) (let ((.def_48 (and .def_47 .def_41))) (let ((.def_49 (or .def_48 .def_38))) (let ((.def_50 (not .def_49))) (let ((.def_51 (and .def_50 .def_30))) (let ((.def_52 (< .def_25 1))) (let ((.def_53 (= A7 .def_52))) (let ((.def_54 (not .def_53))) (let ((.def_55 (* 1 x6))) (let ((.def_56 (+ .def_55 .def_2))) (let ((.def_57 (< .def_56 (- 1)))) (let ((.def_58 (not .def_57))) (let ((.def_59 (and .def_58 A1))) (let ((.def_60 (not .def_59))) (let ((.def_61 (= .def_60 .def_54))) (let ((.def_62 (not .def_61))) (let ((.def_63 (< .def_6 1))) (let ((.def_64 (or A8 .def_63))) (let ((.def_65 (not A2))) (let ((.def_66 (not A5))) (let ((.def_67 (or .def_66 .def_65))) (let ((.def_68 (= .def_67 .def_64))) (let ((.def_69 (and .def_68 .def_62))) (let ((.def_70 (* (- 1) x6))) (let ((.def_71 (+ .def_70 .def_16))) (let ((.def_72 (< .def_71 1))) (let ((.def_73 (not .def_72))) (let ((.def_74 (or A4 .def_73))) (let ((.def_75 (not A7))) (let ((.def_76 (or A9 .def_75))) (let ((.def_77 (or .def_76 .def_74))) (let ((.def_78 (not .def_77))) (let ((.def_79 (+ .def_15 .def_6))) (let ((.def_80 (< .def_79 (- 1)))) (let ((.def_81 (< .def_5 (- 1)))) (let ((.def_82 (and .def_81 .def_80))) (let ((.def_83 (< .def_55 1))) (let ((.def_84 (not .def_83))) (let ((.def_85 (and .def_84 .def_63))) (let ((.def_86 (and .def_85 .def_82))) (let ((.def_87 (or .def_86 .def_78))) (let ((.def_88 (not .def_87))) (let ((.def_89 (and .def_88 .def_69))) (let ((.def_90 (or .def_89 .def_51))) (let ((.def_91 (+ .def_70 .def_21))) (let ((.def_92 (< .def_91 1))) (let ((.def_93 (not .def_92))) (let ((.def_94 (+ .def_32 .def_2))) (let ((.def_95 (< .def_94 (- 1)))) (let ((.def_96 (or .def_95 .def_93))) (let ((.def_97 (not .def_96))) (let ((.def_98 (* (- 1) x4))) (let ((.def_99 (+ .def_98 .def_25))) (let ((.def_100 (< .def_99 1))) (let ((.def_101 (not .def_100))) (let ((.def_102 (= .def_65 .def_101))) (let ((.def_103 (not .def_102))) (let ((.def_104 (and .def_103 .def_97))) (let ((.def_105 (not .def_104))) (let ((.def_106 (* 1 x0))) (let ((.def_107 (+ .def_106 .def_21))) (let ((.def_108 (< .def_107 1))) (let ((.def_109 (not .def_108))) (let ((.def_110 (+ .def_32 .def_43))) (let ((.def_111 (< .def_110 (- 1)))) (let ((.def_112 (not .def_111))) (let ((.def_113 (or .def_112 .def_109))) (let ((.def_114 (not .def_113))) (let ((.def_115 (not A4))) (let ((.def_116 (or .def_66 .def_115))) (let ((.def_117 (and .def_116 .def_114))) (let ((.def_118 (not .def_117))) (let ((.def_119 (and .def_118 .def_105))) (let ((.def_120 (not .def_119))) (let ((.def_121 (< .def_106 (- 1)))) (let ((.def_122 (not .def_121))) (let ((.def_123 (or A6 .def_122))) (let ((.def_124 (* (- 1) x5))) (let ((.def_125 (+ .def_124 .def_55))) (let ((.def_126 (< .def_125 (- 1)))) (let ((.def_127 (not .def_126))) (let ((.def_128 (or A5 .def_127))) (let ((.def_129 (or .def_128 .def_123))) (let ((.def_130 (< .def_43 (- 1)))) (let ((.def_131 (not .def_130))) (let ((.def_132 (+ .def_55 .def_15))) (let ((.def_133 (< .def_132 (- 1)))) (let ((.def_134 (or .def_133 .def_131))) (let ((.def_135 (not .def_134))) (let ((.def_136 (and A9 A9))) (let ((.def_137 (not .def_136))) (let ((.def_138 (and .def_137 .def_135))) (let ((.def_139 (and .def_138 .def_129))) (let ((.def_140 (not .def_139))) (let ((.def_141 (or .def_140 .def_120))) (let ((.def_142 (* 1 x1))) (let ((.def_143 (+ .def_25 .def_142))) (let ((.def_144 (< .def_143 1))) (let ((.def_145 (not A9))) (let ((.def_146 (and .def_145 .def_144))) (let ((.def_147 (not .def_146))) (let ((.def_148 (< .def_44 1))) (let ((.def_149 (or .def_148 A8))) (let ((.def_150 (or .def_149 .def_147))) (let ((.def_151 (not .def_150))) (let ((.def_152 (or A6 A5))) (let ((.def_153 (< .def_43 1))) (let ((.def_154 (not .def_153))) (let ((.def_155 (or .def_154 .def_100))) (let ((.def_156 (or .def_155 .def_152))) (let ((.def_157 (or .def_156 .def_151))) (let ((.def_158 (< .def_106 1))) (let ((.def_159 (not .def_158))) (let ((.def_160 (= .def_159 A4))) (let ((.def_161 (* 1 x8))) (let ((.def_162 (+ .def_21 .def_161))) (let ((.def_163 (< .def_162 1))) (let ((.def_164 (and A2 .def_163))) (let ((.def_165 (or .def_164 .def_160))) (let ((.def_166 (not .def_165))) (let ((.def_167 (+ .def_6 .def_55))) (let ((.def_168 (< .def_167 (- 1)))) (let ((.def_169 (or A5 .def_168))) (let ((.def_170 (= .def_63 .def_4))) (let ((.def_171 (not .def_170))) (let ((.def_172 (and .def_171 .def_169))) (let ((.def_173 (not .def_172))) (let ((.def_174 (or .def_173 .def_166))) (let ((.def_175 (and .def_174 .def_157))) (let ((.def_176 (and .def_175 .def_141))) (let ((.def_177 (and .def_176 .def_90))) (let ((.def_178 (< .def_142 1))) (let ((.def_179 (or .def_178 .def_66))) (let ((.def_180 (not .def_179))) (let ((.def_181 (+ .def_2 .def_142))) (let ((.def_182 (< .def_181 (- 1)))) (let ((.def_183 (< .def_22 1))) (let ((.def_184 (and .def_183 .def_182))) (let ((.def_185 (not .def_184))) (let ((.def_186 (or .def_185 .def_180))) (let ((.def_187 (not .def_186))) (let ((.def_188 (< .def_16 (- 1)))) (let ((.def_189 (not .def_188))) (let ((.def_190 (not A0))) (let ((.def_191 (and .def_190 .def_189))) (let ((.def_192 (< .def_15 (- 1)))) (let ((.def_193 (or .def_192 .def_75))) (let ((.def_194 (or .def_193 .def_191))) (let ((.def_195 (and .def_194 .def_187))) (let ((.def_196 (+ .def_16 .def_124))) (let ((.def_197 (< .def_196 (- 1)))) (let ((.def_198 (not .def_197))) (let ((.def_199 (or A7 .def_198))) (let ((.def_200 (not .def_183))) (let ((.def_201 (and .def_131 .def_200))) (let ((.def_202 (and .def_201 .def_199))) (let ((.def_203 (+ .def_106 .def_5))) (let ((.def_204 (< .def_203 (- 1)))) (let ((.def_205 (and .def_204 .def_80))) (let ((.def_206 (< .def_161 1))) (let ((.def_207 (not A8))) (let ((.def_208 (= .def_207 .def_206))) (let ((.def_209 (and .def_208 .def_205))) (let ((.def_210 (not .def_209))) (let ((.def_211 (or .def_210 .def_202))) (let ((.def_212 (and .def_211 .def_195))) (let ((.def_213 (= .def_75 .def_65))) (let ((.def_214 (< .def_6 (- 1)))) (let ((.def_215 (not .def_214))) (let ((.def_216 (or .def_215 .def_75))) (let ((.def_217 (not .def_216))) (let ((.def_218 (or .def_217 .def_213))) (let ((.def_219 (or .def_58 .def_66))) (let ((.def_220 (not .def_219))) (let ((.def_221 (and A2 A8))) (let ((.def_222 (or .def_221 .def_220))) (let ((.def_223 (or .def_222 .def_218))) (let ((.def_224 (not .def_223))) (let ((.def_225 (+ .def_6 .def_124))) (let ((.def_226 (< .def_225 1))) (let ((.def_227 (not .def_226))) (let ((.def_228 (and .def_36 .def_227))) (let ((.def_229 (not .def_228))) (let ((.def_230 (or .def_145 A5))) (let ((.def_231 (or .def_230 .def_229))) (let ((.def_232 (not .def_231))) (let ((.def_233 (and .def_39 A4))) (let ((.def_234 (or A1 A4))) (let ((.def_235 (or .def_234 .def_233))) (let ((.def_236 (not .def_235))) (let ((.def_237 (and .def_236 .def_232))) (let ((.def_238 (not .def_237))) (let ((.def_239 (or .def_238 .def_224))) (let ((.def_240 (and .def_239 .def_212))) (let ((.def_241 (not .def_240))) (let ((.def_242 (< .def_98 (- 1)))) (let ((.def_243 (not .def_242))) (let ((.def_244 (* (- 1) x9))) (let ((.def_245 (+ .def_42 .def_244))) (let ((.def_246 (< .def_245 1))) (let ((.def_247 (or .def_246 .def_243))) (let ((.def_248 (not .def_247))) (let ((.def_249 (+ .def_25 .def_13))) (let ((.def_250 (< .def_249 1))) (let ((.def_251 (and .def_250 .def_115))) (let ((.def_252 (or .def_251 .def_248))) (let ((.def_253 (not .def_252))) (let ((.def_254 (and A3 A9))) (let ((.def_255 (< .def_70 (- 1)))) (let ((.def_256 (and .def_255 A3))) (let ((.def_257 (not .def_256))) (let ((.def_258 (and .def_257 .def_254))) (let ((.def_259 (and .def_258 .def_253))) (let ((.def_260 (+ .def_2 .def_161))) (let ((.def_261 (< .def_260 1))) (let ((.def_262 (not .def_261))) (let ((.def_263 (or .def_262 .def_214))) (let ((.def_264 (< .def_15 1))) (let ((.def_265 (not .def_264))) (let ((.def_266 (or .def_265 A6))) (let ((.def_267 (not .def_266))) (let ((.def_268 (or .def_267 .def_263))) (let ((.def_269 (+ .def_5 .def_13))) (let ((.def_270 (< .def_269 (- 1)))) (let ((.def_271 (not .def_270))) (let ((.def_272 (and .def_271 .def_207))) (let ((.def_273 (and .def_190 A3))) (let ((.def_274 (and .def_273 .def_272))) (let ((.def_275 (not .def_274))) (let ((.def_276 (and .def_275 .def_268))) (let ((.def_277 (or .def_276 .def_259))) (let ((.def_278 (< .def_55 (- 1)))) (let ((.def_279 (and .def_66 .def_278))) (let ((.def_280 (not .def_279))) (let ((.def_281 (+ .def_13 .def_142))) (let ((.def_282 (< .def_281 1))) (let ((.def_283 (not .def_282))) (let ((.def_284 (or .def_283 .def_84))) (let ((.def_285 (= .def_284 .def_280))) (let ((.def_286 (not .def_285))) (let ((.def_287 (+ .def_13 .def_55))) (let ((.def_288 (< .def_287 (- 1)))) (let ((.def_289 (not .def_288))) (let ((.def_290 (and .def_289 .def_145))) (let ((.def_291 (not .def_290))) (let ((.def_292 (< .def_124 (- 1)))) (let ((.def_293 (not .def_292))) (let ((.def_294 (or .def_293 .def_65))) (let ((.def_295 (not .def_294))) (let ((.def_296 (and .def_295 .def_291))) (let ((.def_297 (not .def_296))) (let ((.def_298 (and .def_297 .def_286))) (let ((.def_299 (not .def_298))) (let ((.def_300 (< .def_22 (- 1)))) (let ((.def_301 (and .def_300 A0))) (let ((.def_302 (and A8 .def_36))) (let ((.def_303 (not .def_302))) (let ((.def_304 (or .def_303 .def_301))) (let ((.def_305 (< .def_21 1))) (let ((.def_306 (not .def_305))) (let ((.def_307 (+ .def_98 .def_2))) (let ((.def_308 (< .def_307 1))) (let ((.def_309 (not .def_308))) (let ((.def_310 (or .def_309 .def_306))) (let ((.def_311 (not .def_310))) (let ((.def_312 (or .def_200 .def_115))) (let ((.def_313 (or .def_312 .def_311))) (let ((.def_314 (not .def_313))) (let ((.def_315 (and .def_314 .def_304))) (let ((.def_316 (not .def_315))) (let ((.def_317 (or .def_316 .def_299))) (let ((.def_318 (and .def_317 .def_277))) (let ((.def_319 (not .def_318))) (let ((.def_320 (or .def_319 .def_241))) (let ((.def_321 (not .def_320))) (let ((.def_322 (or .def_321 .def_177))) (let ((.def_323 (<= x9 1))) (let ((.def_324 (<= 0 x9))) (let ((.def_325 (<= x8 1))) (let ((.def_326 (<= 0 x8))) (let ((.def_327 (<= x7 1))) (let ((.def_328 (<= 0 x7))) (let ((.def_329 (<= x6 1))) (let ((.def_330 (<= 0 x6))) (let ((.def_331 (<= x5 1))) (let ((.def_332 (<= 0 x5))) (let ((.def_333 (<= x4 1))) (let ((.def_334 (<= 0 x4))) (let ((.def_335 (<= x3 1))) (let ((.def_336 (<= 0 x3))) (let ((.def_337 (<= x2 1))) (let ((.def_338 (<= 0 x2))) (let ((.def_339 (<= x1 1))) (let ((.def_340 (<= 0 x1))) (let ((.def_341 (<= x0 1))) (let ((.def_342 (<= 0 x0))) (let ((.def_343 (and .def_342 .def_341 .def_340 .def_339 .def_338 .def_337 .def_336 .def_335 .def_334 .def_333 .def_332 .def_331 .def_330 .def_329 .def_328 .def_327 .def_326 .def_325 .def_324 .def_323 .def_322))) .def_343)))))))))))))))))))))))))))))))))))))))))))))))))))))))))))))))))))))))))))))))))))))))))))))))))))))))))))))))))))))))))))))))))))))))))))))))))))))))))))))))))))))))))))))))))))))))))))))))))))))))))))))))))))))))))))))))))))))))))))))))))))))))))))))))))))))))))))))))))))))))))))))))))))))))))))))))))))))))))))))))))))))))))))))))))))))))))
(check-sat)
